NAME          DCAP_2_4_3_300_SS134
ROWS
 N  OBJ
 L  CON1
 L  CON2
 L  CON3
 L  CON4
 L  CON5
 L  CON6
 L  CON7
 L  CON8
 L  CON9
 L  CON10
 L  CON11
 L  CON12
 E  CON13
 E  CON14
 E  CON15
 E  CON16
 E  CON17
 E  CON18
 E  CON19
 E  CON20
 E  CON21
 E  CON22
 E  CON23
 E  CON24
COLUMNS
    x[1,1]    OBJ       6.180167      CON1      1.000000    
    x[1,1]    CON7      -1.000000     CON8      -1.000000   
    x[1,1]    CON9      -1.000000   
    x[1,2]    OBJ       6.563535      CON2      1.000000    
    x[1,2]    CON8      -1.000000     CON9      -1.000000   
    x[1,3]    OBJ       7.443064      CON3      1.000000    
    x[1,3]    CON9      -1.000000   
    x[2,1]    OBJ       6.732585      CON4      1.000000    
    x[2,1]    CON10     -1.000000     CON11     -1.000000   
    x[2,1]    CON12     -1.000000   
    x[2,2]    OBJ       5.039546      CON5      1.000000    
    x[2,2]    CON11     -1.000000     CON12     -1.000000   
    x[2,3]    OBJ       6.054841      CON6      1.000000    
    x[2,3]    CON12     -1.000000   
    MARKER    'MARKER'                'INTORG'
    u[1,1]    OBJ       48.076654     CON1      -1.000000   
    u[1,2]    OBJ       20.066487     CON2      -1.000000   
    u[1,3]    OBJ       32.230043     CON3      -1.000000   
    u[2,1]    OBJ       49.996186     CON4      -1.000000   
    u[2,2]    OBJ       49.466655     CON5      -1.000000   
    u[2,3]    OBJ       27.484319     CON6      -1.000000   
    y[1,1,1]  OBJ       6.923398      CON7      1.023632    
    y[1,1,1]  CON13     1.000000    
    y[1,1,2]  OBJ       9.927813      CON8      1.119682    
    y[1,1,2]  CON14     1.000000    
    y[1,1,3]  OBJ       7.952191      CON9      0.985598    
    y[1,1,3]  CON15     1.000000    
    y[1,2,1]  OBJ       9.749280      CON7      1.244912    
    y[1,2,1]  CON16     1.000000    
    y[1,2,2]  OBJ       6.086383      CON8      1.482124    
    y[1,2,2]  CON17     1.000000    
    y[1,2,3]  OBJ       7.557476      CON9      0.894130    
    y[1,2,3]  CON18     1.000000    
    y[1,3,1]  OBJ       7.255315      CON7      0.995149    
    y[1,3,1]  CON19     1.000000    
    y[1,3,2]  OBJ       8.366323      CON8      0.604314    
    y[1,3,2]  CON20     1.000000    
    y[1,3,3]  OBJ       6.474569      CON9      1.168308    
    y[1,3,3]  CON21     1.000000    
    y[1,4,1]  OBJ       8.599580      CON7      1.007089    
    y[1,4,1]  CON22     1.000000    
    y[1,4,2]  OBJ       9.165286      CON8      1.215343    
    y[1,4,2]  CON23     1.000000    
    y[1,4,3]  OBJ       9.673859      CON9      1.424342    
    y[1,4,3]  CON24     1.000000    
    y[2,1,1]  OBJ       7.719345      CON10     1.023632    
    y[2,1,1]  CON13     1.000000    
    y[2,1,2]  OBJ       7.807879      CON11     1.119682    
    y[2,1,2]  CON14     1.000000    
    y[2,1,3]  OBJ       8.099250      CON12     0.985598    
    y[2,1,3]  CON15     1.000000    
    y[2,2,1]  OBJ       7.819140      CON10     1.244912    
    y[2,2,1]  CON16     1.000000    
    y[2,2,2]  OBJ       6.971574      CON11     1.482124    
    y[2,2,2]  CON17     1.000000    
    y[2,2,3]  OBJ       9.290653      CON12     0.894130    
    y[2,2,3]  CON18     1.000000    
    y[2,3,1]  OBJ       5.245471      CON10     0.995149    
    y[2,3,1]  CON19     1.000000    
    y[2,3,2]  OBJ       5.783081      CON11     0.604314    
    y[2,3,2]  CON20     1.000000    
    y[2,3,3]  OBJ       7.251125      CON12     1.168308    
    y[2,3,3]  CON21     1.000000    
    y[2,4,1]  OBJ       8.103584      CON10     1.007089    
    y[2,4,1]  CON22     1.000000    
    y[2,4,2]  OBJ       8.935949      CON11     1.215343    
    y[2,4,2]  CON23     1.000000    
    y[2,4,3]  OBJ       5.287461      CON12     1.424342    
    y[2,4,3]  CON24     1.000000    
    z[1,1]    OBJ       559.164664    CON13     1.000000    
    z[1,2]    OBJ       640.825935    CON14     1.000000    
    z[1,3]    OBJ       515.861071    CON15     1.000000    
    z[2,1]    OBJ       583.164686    CON16     1.000000    
    z[2,2]    OBJ       555.887828    CON17     1.000000    
    z[2,3]    OBJ       863.574344    CON18     1.000000    
    z[3,1]    OBJ       873.106469    CON19     1.000000    
    z[3,2]    OBJ       996.762801    CON20     1.000000    
    z[3,3]    OBJ       984.920036    CON21     1.000000    
    z[4,1]    OBJ       806.491706    CON22     1.000000    
    z[4,2]    OBJ       697.905041    CON23     1.000000    
    z[4,3]    OBJ       645.235811    CON24     1.000000    
    MARKER    'MARKER'                 'INTEND'
RHS
    RHS       CON1      -0.000000     CON2      -0.000000   
    RHS       CON3      -0.000000     CON4      -0.000000   
    RHS       CON5      -0.000000     CON6      -0.000000   
    RHS       CON7      -0.000000     CON8      -0.000000   
    RHS       CON9      -0.000000     CON10     -0.000000   
    RHS       CON11     -0.000000     CON12     -0.000000   
    RHS       CON13     1.000000      CON14     1.000000    
    RHS       CON15     1.000000      CON16     1.000000    
    RHS       CON17     1.000000      CON18     1.000000    
    RHS       CON19     1.000000      CON20     1.000000    
    RHS       CON21     1.000000      CON22     1.000000    
    RHS       CON23     1.000000      CON24     1.000000    
BOUNDS
 BV BOUND     u[1,1]  
 BV BOUND     u[1,2]  
 BV BOUND     u[1,3]  
 BV BOUND     u[2,1]  
 BV BOUND     u[2,2]  
 BV BOUND     u[2,3]  
 BV BOUND     y[1,1,1]
 BV BOUND     y[1,1,2]
 BV BOUND     y[1,1,3]
 BV BOUND     y[1,2,1]
 BV BOUND     y[1,2,2]
 BV BOUND     y[1,2,3]
 BV BOUND     y[1,3,1]
 BV BOUND     y[1,3,2]
 BV BOUND     y[1,3,3]
 BV BOUND     y[1,4,1]
 BV BOUND     y[1,4,2]
 BV BOUND     y[1,4,3]
 BV BOUND     y[2,1,1]
 BV BOUND     y[2,1,2]
 BV BOUND     y[2,1,3]
 BV BOUND     y[2,2,1]
 BV BOUND     y[2,2,2]
 BV BOUND     y[2,2,3]
 BV BOUND     y[2,3,1]
 BV BOUND     y[2,3,2]
 BV BOUND     y[2,3,3]
 BV BOUND     y[2,4,1]
 BV BOUND     y[2,4,2]
 BV BOUND     y[2,4,3]
 BV BOUND     z[1,1]  
 BV BOUND     z[1,2]  
 BV BOUND     z[1,3]  
 BV BOUND     z[2,1]  
 BV BOUND     z[2,2]  
 BV BOUND     z[2,3]  
 BV BOUND     z[3,1]  
 BV BOUND     z[3,2]  
 BV BOUND     z[3,3]  
 BV BOUND     z[4,1]  
 BV BOUND     z[4,2]  
 BV BOUND     z[4,3]  
ENDATA
